100
237 104 397 155 67 402 918 801 766 222 537 277 173 107 215 928 829 807 801 194 310 627 732 855 881 87 606 672 506 178 474 90 935 866 548 301 909 573 883 849 509 414 599 432 162 306 813 44 47 627 281 535 472 343 998 196 413 203 633 277 356 747 321 559 905 101 62 229 766 616 238 332 178 460 43 698 896 955 735 960 19 289 967 776 411 944 621 818 294 192 445 137 382 962 332 10 45 170 784 363 
195 23 494 140 35 313 829 734 802 152 445 275 123 207 139 934 884 789 899 190 258 609 639 839 830 167 673 672 412 129 422 40 881 940 476 211 995 586 982 829 590 445 657 481 161 224 755 126 133 712 248 567 532 372 1061 202 444 240 586 362 448 661 416 652 939 9 146 154 860 650 150 265 205 474 107 784 839 855 820 862 105 212 1029 833 487 954 697 758 328 158 524 192 376 967 237 4 87 168 857 385 
23881
